language Essence 1.3
letting nnodes be 10
letting nrings be 6
letting capacity be 5
letting demand be {{1, 6},
{1, 7},
{2, 3},
{2, 7},
{2, 9},
{3, 4},
{3, 5},
{3, 6},
{3, 8},
{3, 9},
{3, 10},
{4, 5},
{5, 8},
{6, 8},
{9, 10}}
